n = 10; 

m=12; 


43	50	51	88	95	52	15	25	2	21
57	90	81	15	66	1	89	31	20	46
31	19	14	10	78	15	91	35	79	78
67	68	38	40	28	5	26	59	77	60
67	37	74	4	15	93	4	9	33	97
25	21	12	6	56	19	75	35	64	89
26	49	42	15	66	67	40	97	13	54
91	13	94	52	7	71	1	84	38	61
20	64	97	82	36	99	41	30	80	70
30	58	95	96	92	54	18	20	27	59
22	93	6	95	58	12	16	93	40	87
67	37	74	4	15	93	4	9	33	97
			
											
											
											
											
											


